Version identifier: 20.1.0.0 | 2020-11-10 | 9bedb6d68
CPXPARAM_Threads                                 1
CPXPARAM_TimeLimit                               7200
CPXPARAM_MIP_Tolerances_MIPGap                   0
Generic callback                                 0x60
1 of 1 MIP starts provided solutions.
MIP start 'm1' defined initial solution with objective 1000.8231.
Tried aggregator 1 time.
Reduced MIP has 1 rows, 501 columns, and 500 nonzeros.
Reduced MIP has 500 binaries, 0 generals, 0 SOSs, and 0 indicators.
Presolve time = 0.00 sec. (0.15 ticks)
Probing time = 0.00 sec. (0.05 ticks)
Tried aggregator 1 time.
Reduced MIP has 1 rows, 501 columns, and 500 nonzeros.
Reduced MIP has 500 binaries, 0 generals, 0 SOSs, and 0 indicators.
Presolve time = 0.00 sec. (0.15 ticks)
Probing time = 0.00 sec. (0.05 ticks)
MIP emphasis: balance optimality and feasibility.
MIP search method: dynamic search.
Parallel mode: none, using 1 thread.
Root relaxation solution time = 0.00 sec. (0.10 ticks)

        Nodes                                         Cuts/
   Node  Left     Objective  IInf  Best Integer    Best Bound    ItCnt     Gap

*     0+    0                         1000.8231     5432.0000           442.75%
      0     0     1295.0653     2     1000.8231     5432.0000        0  442.75%
      0     0     1239.6916     3     1000.8231 UserPurge2: 1       15   23.87%
      0     0     1195.1444     5     1000.8231 UserPurge2: 1       28   19.42%
      0     0     1046.4636     3     1000.8231 UserPurge2: 1       48    4.56%

Repeating presolve.
Tried aggregator 1 time.
MIP Presolve eliminated 0 rows and 263 columns.
Reduced MIP has 1 rows, 238 columns, and 237 nonzeros.
Reduced MIP has 237 binaries, 0 generals, 0 SOSs, and 0 indicators.
Presolve time = 0.00 sec. (0.12 ticks)
Probing time = 0.00 sec. (0.03 ticks)
Tried aggregator 1 time.
Reduced MIP has 1 rows, 238 columns, and 237 nonzeros.
Reduced MIP has 237 binaries, 0 generals, 0 SOSs, and 0 indicators.
Presolve time = 0.00 sec. (0.07 ticks)
Represolve time = 0.00 sec. (0.62 ticks)
Probing time = 0.00 sec. (0.03 ticks)
MIP emphasis: balance optimality and feasibility.
MIP search method: dynamic search.
Parallel mode: none, using 1 thread.
Root relaxation solution time = 0.00 sec. (0.27 ticks)

        Nodes                                         Cuts/
   Node  Left     Objective  IInf  Best Integer    Best Bound    ItCnt     Gap

*     0+    0                         1000.8231     1046.4636             4.56%
      0     0     1046.4636     3     1000.8231     1046.4636       62    4.56%
      0     0     1041.4407     2     1000.8231 UserPurge2: 1       65    4.06%
      0     0     1039.2593     3     1000.8231 UserPurge2: 1       67    3.84%
      0     0     1038.7495     4     1000.8231 UserPurge1: 1       69    3.79%
      0     0     1038.4061     3     1000.8231 UserPurge2: 1       75    3.76%
*     0+    0                         1001.0010     1038.4061             3.74%
      0     0     1033.4093     4     1001.0010 UserPurge2: 1       83    3.24%
      0     0     1024.8230     4     1001.0010 UserPurge2: 1       87    2.38%
      0     0     1024.2969     5     1001.0010 UserPurge2: 1       90    2.33%
      0     0     1023.0650     5     1001.0010 UserPurge2: 1       94    2.20%
      0     0     1022.4923     6     1001.0010 UserPurge2: 1       97    2.15%
      0     0     1021.9140     6     1001.0010 UserPurge2: 1      101    2.09%
      0     2     1021.9140     6     1001.0010     1021.8647      101    2.08%
Elapsed time = 9.36 sec. (12.08 ticks, tree = 0.01 MB, solutions = 2)
      1     3     1002.4217     6     1001.0010     1020.5961     1595    1.96%
*     4     2      integral     0     1001.9116     1002.4212     1680    0.05%
*     8     1      integral     0     1002.0307     1002.1319     2080    0.01%

User cuts applied:  628

Root node processing (before b&c):
  Real time             =    9.36 sec. (12.53 ticks)
Sequential b&c:
  Real time             =  128.82 sec. (462.90 ticks)
                          ------------
Total (root+branch&cut) =  138.19 sec. (475.43 ticks)
@Parameters: 
is_S_cut                                true
is_add_all_yinF                         true
is_start_value                          true
is_usercut                              true
is_visualization                        false
uc_only_rootnode                        false

data                                    Qi
fn                                      data/Qi/instance_1000_500.csv
mode                                    NewSubmodular
solver                                  cplex

p                                       2
r                                       50

EPS                                     1.0e-06
EPS_vio                                 1.0e-04
beta                                    0.10
gap                                     0.00
nodelimit                               Inf
timelimit                               7200.00


@PrintInfos
ItCnt: 2081
Current gap: 0.00 %
Termination Status: OPTIMAL
Primal Status: FEASIBLE_POINT
Solve Time: 138.19 sec
Objective Value: 1002.030712
Number of Nodes:     10

CutInfo: [phase] num / time (sec) 
ZLP             [phase1]     0 / 0.00 [rLC]     0 / 0.00 [rUC]     0 / 0.00 [sLC]     0 / 0.00 [sUC]     0 / 0.00 
OldSubmodular   [phase1]     0 / 0.00 [rLC]     0 / 0.00 [rUC]     0 / 0.00 [sLC]     0 / 0.00 [sUC]     0 / 0.00 
NewSubmodular   [phase1]     0 / 0.00 [rLC]    16 / 5.05 [rUC]    27 / 2.31 [sLC]     3 / 2.58 [sUC]   619 / 125.73 
PMP             [phase1]     0 / 0.00 [rLC]     5 / 2.48 [rUC]     0 / 0.00 [sLC]     4 / 2.38 [sUC]    12 / 9.43 
Separation Round: [phase1] 0  [rLC] 16  [rUC] 15  [sLC] 5  [sUC] 223
Root Best Bound 1002.421225
Root Best Integer: 1001.000992
Best Bound: 1002.030712
Best Integer: 1002.030712

